x: [197.0, 0.0, 209.0, 0.0, 0.0, 229.0, 0.0, 195.0, 0.0, 216.0, 0.0, 0.0, 0.0, 177.0, 0.0, 198.0, 0.0, 0.0, 0.0, 204.0, 0.0, 0.0, 171.0, 0.0, 186.0, 0.0, 170.0, 0.0, 0.0, 0.0, 197.0, 0.0, 201.0, 0.0, 0.0, 0.0, 181.0, 0.0, 0.0, 211.0, 0.0, 0.0, 218.0, 0.0, 231.0, 0.0, 191.0, 0.0, 0.0, 0.0, 209.0, 0.0] 
xr: [0.0, 0.0, 0.0, 0.0, 116.0, 0.0, 0.0, 0.0, 0.0, 0.0, 0.0, 193.0, 0.0, 0.0, 0.0, 0.0, 0.0, 189.0, 0.0, 0.0, 0.0, 111.0, 0.0, 0.0, 0.0, 0.0, 0.0, 0.0, 193.0, 0.0, 0.0, 0.0, 0.0, 0.0, 190.0, 0.0, 0.0, 0.0, 113.0, 0.0, 0.0, 91.0, 0.0, 0.0, 0.0, 0.0, 0.0, 0.0, 188.0, 0.0, 0.0, 0.0] 
